p cnf 42 126
a 19 23 0
e 1 2 3 4 5 6 7 8 9 10 11 12 13 14 15 16 17 18 20 21 22 24 25 26 27 28 29 30 31 32 33 34 35 36 37 38 39 40 41 42 0
3 -1 0
3 -2 0
1 2 -3 0
3 4 -5 0
-3 -4 -5 0
3 -4 5 0
-3 4 5 0
7 8 0
-7 8 0
-8 4 -9 0
8 -4 -9 0
-8 -4 9 0
8 4 9 0
9 -10 -11 0
-9 10 -11 0
9 10 11 0
-9 -10 11 0
-6 -11 -12 0
6 11 -12 0
-6 11 12 0
6 -11 12 0
-13 2 0
-13 3 0
-2 -3 13 0
14 13 0
14 1 0
-13 -1 -14 0
15 -3 0
15 -1 0
3 1 -15 0
16 14 0
16 -15 0
-14 15 -16 0
-17 7 0
-17 10 0
-7 -10 17 0
-17 10 -18 0
17 -10 -18 0
-17 -10 18 0
17 10 18 0
-19 -16 0
-19 18 0
16 -18 19 0
20 12 0
20 -19 0
-12 19 -20 0
-22 -21 0
-22 -7 0
21 7 22 0
23 -22 0
23 -10 0
22 10 -23 0
-24 -1 0
-24 -1 0
1 24 0
-24 -25 -26 0
24 25 -26 0
-24 25 26 0
24 -25 26 0
-27 7 0
-27 -26 0
-7 26 27 0
28 23 0
28 -27 0
-23 27 -28 0
-28 -8 -29 0
28 8 -29 0
-28 8 29 0
28 -8 29 0
1 -3 -30 0
-1 3 -30 0
1 3 30 0
-1 -3 30 0
31 29 0
31 30 0
-29 -30 -31 0
20 -31 -32 0
-20 31 -32 0
20 31 32 0
-20 -31 32 0
33 24 0
33 1 0
-24 -1 -33 0
-33 21 -34 0
33 -21 -34 0
-33 -21 34 0
33 21 34 0
21 34 -35 0
-21 -34 -35 0
21 -34 35 0
-21 34 35 0
36 -25 0
36 35 0
25 -35 -36 0
10 -3 -37 0
-10 3 -37 0
10 3 37 0
-10 -3 37 0
37 -25 -38 0
-37 25 -38 0
37 25 38 0
-37 -25 38 0
39 -38 0
39 -38 0
38 -39 0
-40 36 0
-40 39 0
-36 -39 40 0
-41 32 0
-41 -40 0
-32 40 41 0
-42 5 0
-42 41 0
-5 -41 42 0
-40 -35 -16 12 24 0
-29 -19 -1 0
29 39 27 2 0
-21 39 36 0
19 -17 3 -28 27 0
-18 -36 -32 0
38 -22 37 -6 0
-11 -15 28 12 -27 -3 0
-24 3 31 40 -33 0
-5 -37 29 0
-8 4 29 19 -31 -42 0
42 0
